NAME: PointSet_Angle_20_6
TYPE: TSP
COMMENT: Points chosen discrete uniformly at random out of ${0, \ldots, 500}^2$.
DIMENSION: 20
EDGE_WEIGHT_TYPE: EUC_2D
NODE_COORD_SECTION
1 395 481
2 86 50
3 165 269
4 51 256
5 223 106
6 134 321
7 447 282
8 338 6
9 294 351
10 106 389
11 475 353
12 491 82
13 105 30
14 37 406
15 99 138
16 246 240
17 365 332
18 290 276
19 348 88
20 32 70
EOF
